
List of user-set options:

                                    Name   Value                used
                           compl_inf_tol = 1                     yes
                         constr_viol_tol = 1                     yes
                            dual_inf_tol = 1000                  yes
                           linear_solver = ma97                  yes
                              ma86_small = 1e-30                  no
                                  ma86_u = 0.0001                 no
                              ma97_order = best                  yes
                              ma97_small = 1e-30                 yes
                            ma97_switch1 = at_start              yes
                            ma97_switch2 = od_hd_reuse           yes
                                  ma97_u = 1e-06                 yes
                               ma97_umax = 0.5                   yes
                                max_iter = 2000                  yes
                    max_refinement_steps = 20                    yes
                    min_refinement_steps = 5                     yes
                                 mu_init = 1e-06                 yes
           mu_superlinear_decrease_power = 1.25                  yes
                   nlp_scaling_min_value = 1e-08                 yes
                        option_file_name = Preset_Case:_25_NCP.opt  yes
                             output_file = ./tmp/Preset_Case:_25_NCP.output  yes
                      print_user_options = yes                   yes
        required_infeasibility_reduction = 1                      no
                                     tol = 1e-08                 yes
                   warm_start_bound_frac = 1e-20                 yes
                   warm_start_bound_push = 1e-20                 yes
                   warm_start_init_point = yes                   yes
              warm_start_mult_bound_push = 1e-20                 yes
                warm_start_mult_init_max = 1e+40                 yes
             warm_start_slack_bound_frac = 1e-20                 yes
             warm_start_slack_bound_push = 1e-20                 yes

******************************************************************************
This program contains Ipopt, a library for large-scale nonlinear optimization.
 Ipopt is released as open source code under the Eclipse Public License (EPL).
         For more information visit http://projects.coin-or.org/Ipopt
******************************************************************************

This is Ipopt version 3.12.10, running with linear solver ma97.

Number of nonzeros in equality constraint Jacobian...:   117140
Number of nonzeros in inequality constraint Jacobian.:      213
Number of nonzeros in Lagrangian Hessian.............:    47462

Total number of variables............................:    29971
                     variables with only lower bounds:    11312
                variables with lower and upper bounds:    15132
                     variables with only upper bounds:        0
Total number of equality constraints.................:    29864
Total number of inequality constraints...............:       25
        inequality constraints with only lower bounds:        4
   inequality constraints with lower and upper bounds:        0
        inequality constraints with only upper bounds:       21

iter    objective    inf_pr   inf_du lg(mu)  ||d||  lg(rg) alpha_du alpha_pr  ls
   0 -4.2429457e-02 4.78e-01 1.04e+02  -6.0 0.00e+00    -  0.00e+00 0.00e+00   0
In iteration 0, 2 Slacks too small, adjusting variable bounds
   1 -4.2429457e-02 4.78e-01 2.77e+02  -6.0 6.72e+05  -2.0 8.39e-09 3.09e-13f  1
   2 -4.2429457e-02 4.78e-01 1.01e+03  -6.0 2.35e+03  -2.5 2.56e-05 1.15e-09f  1
   3 -4.2430770e-02 4.78e-01 1.29e+03  -6.0 6.44e+03  -3.0 2.08e-06 2.04e-05f  1
   4 -4.2431713e-02 4.78e-01 8.75e+02  -6.0 6.41e+03  -3.4 6.29e-05 1.41e-05f  1
   5 -4.2436366e-02 4.78e-01 3.09e+03  -6.0 6.42e+03  -3.0 1.53e-05 6.02e-05f  1
   6 -4.2450157e-02 4.78e-01 9.28e+03  -6.0 6.38e+03  -3.5 1.56e-04 4.37e-04f  1
In iteration 6, 1 Slack too small, adjusting variable bound
   7 -4.2450259e-02 4.78e-01 1.30e+04  -6.0 6.19e+03  -3.1 8.29e-05 1.49e-04f  1
   8 -4.2423775e-02 4.77e-01 1.23e+04  -6.0 6.03e+03  -3.5 1.89e-04 1.49e-04h  1
   9 -4.2402652e-02 4.77e-01 1.18e+04  -6.0 5.99e+03  -3.1 2.49e-04 2.38e-04h  1
iter    objective    inf_pr   inf_du lg(mu)  ||d||  lg(rg) alpha_du alpha_pr  ls
  10 -4.2336531e-02 4.76e-01 5.25e+03  -6.0 5.68e+03  -3.6 1.25e-03 2.12e-04h  4
  11 -4.2241166e-02 4.74e-01 1.16e+04  -6.0 5.64e+03  -3.2 8.77e-04 5.55e-04h  2
  12 -4.2182101e-02 4.73e-01 1.34e+04  -6.0 4.93e+03  -3.6 5.19e-04 1.25e-04h  4
  13 -4.2095717e-02 4.71e-01 4.63e+04  -6.0 5.10e+03  -3.2 1.66e-03 3.16e-04h  3
  14 -4.2065495e-02 4.70e-01 4.74e+04  -6.0 4.51e+03  -3.7 9.91e-04 5.44e-05h  5
  15 -4.2010630e-02 4.69e-01 5.74e+04  -6.0 4.81e+03  -3.3 7.24e-04 1.73e-04h  2
  16 -4.1948241e-02 4.68e-01 1.03e+05  -6.0 4.84e+03  -2.8 1.07e-03 2.80e-04h  3
  17 -4.1916524e-02 4.68e-01 1.05e+05  -6.0 4.46e+03  -3.3 2.58e-04 8.32e-05h  4
  18 -4.1833544e-02 4.66e-01 1.11e+05  -6.0 4.60e+03  -2.9 4.56e-04 3.22e-04h  2
  19 -4.1804434e-02 4.66e-01 1.17e+05  -6.0 4.16e+03  -3.4 9.84e-04 6.82e-05h  3
iter    objective    inf_pr   inf_du lg(mu)  ||d||  lg(rg) alpha_du alpha_pr  ls
  20 -4.1740605e-02 4.65e-01 1.39e+05  -6.0 4.36e+03  -2.9 8.38e-04 2.23e-04h  1
  21 -4.1705062e-02 4.64e-01 1.41e+05  -6.0 3.99e+03  -3.4 7.92e-04 7.82e-05h  1
  22 -4.1661739e-02 4.63e-01 3.99e+05  -6.0 4.21e+03  -3.0 9.56e-03 1.45e-04h  3
  23 -4.1629341e-02 4.63e-01 3.99e+05  -6.0 3.84e+03  -3.5 5.60e-04 6.70e-05h  5
  24 -4.1574864e-02 4.62e-01 6.53e+05  -6.0 4.09e+03  -3.0 1.19e-02 1.73e-04h  4
  25 -4.1558194e-02 4.62e-01 6.52e+05  -6.0 3.68e+03  -3.5 6.74e-04 3.26e-05h  6
  26 -4.1504583e-02 4.61e-01 8.35e+05  -6.0 3.97e+03  -3.1 1.13e-02 1.63e-04h  4
  27 -4.1485678e-02 4.60e-01 8.32e+05  -6.0 3.55e+03  -3.6 7.99e-04 3.46e-05h  6
  28 -4.1430946e-02 4.60e-01 8.75e+05  -6.0 3.87e+03  -3.1 3.65e-03 1.62e-04h  4
  29 -4.0890262e-02 4.58e-01 8.74e+05  -6.0 3.45e+03  -3.6 9.00e-04 9.00e-04s 12
iter    objective    inf_pr   inf_du lg(mu)  ||d||  lg(rg) alpha_du alpha_pr  ls
  30r-4.0890262e-02 4.58e-01 1.00e+03  -0.3 0.00e+00  -3.2 0.00e+00 0.00e+00R  1
  31r-4.1057400e-02 4.57e-01 4.74e+03  -0.3 2.41e+05    -  7.85e-07 2.23e-07f  1
  32r-4.1057400e-02 4.57e-01 9.99e+02  -0.3 0.00e+00    -  0.00e+00 5.89e-08R  2
  33r-4.1057779e-02 4.57e-01 3.73e+03  -0.3 1.52e+04    -  6.79e-07 5.62e-08f  1
  34 -4.1058185e-02 4.57e-01 5.93e+05  -6.0 2.28e+02    -  7.66e-03 2.70e-05h  1
  35r-4.1058185e-02 4.57e-01 1.00e+03  -0.3 0.00e+00    -  0.00e+00 1.61e-07R  2
  36r-4.1058522e-02 4.57e-01 1.81e+03  -0.3 7.24e+05    -  1.19e-06 4.65e-08f  1
  37r-4.1058522e-02 4.57e-01 9.99e+02  -0.3 0.00e+00    -  0.00e+00 5.53e-08R  2
  38r-4.1058724e-02 4.57e-01 3.99e+03  -0.3 1.29e+04    -  1.25e-06 2.82e-08f  1
  39 -4.1058954e-02 4.57e-01 1.30e+06  -6.0 2.30e+02    -  1.57e-02 1.36e-05h  1
iter    objective    inf_pr   inf_du lg(mu)  ||d||  lg(rg) alpha_du alpha_pr  ls
  40 -4.1058355e-02 4.57e-01 1.87e+06  -6.0 3.51e+03    -  1.50e-05 2.16e-05h  1
  41 -4.1036614e-02 4.55e-01 1.88e+06  -6.0 3.52e+03    -  4.71e-03 7.77e-04h  2
  42 -4.1027198e-02 4.54e-01 1.88e+06  -6.0 2.98e+03    -  8.18e-04 7.45e-04h  3
  43 -4.1019417e-02 4.52e-01 1.88e+06  -6.0 2.84e+03    -  8.31e-03 8.08e-04h  3
  44 -4.1019488e-02 4.51e-01 1.87e+06  -6.0 2.64e+03    -  2.90e-03 1.64e-03h  3
  45 -4.1063846e-02 4.42e-01 1.86e+06  -6.0 2.31e+03    -  1.07e-02 9.04e-03H  1
  46 -4.1161020e-02 4.39e-01 1.85e+06  -6.0 1.37e+03    -  2.35e-03 3.84e-03h  1
  47 -4.1479210e-02 4.31e-01 1.83e+06  -6.0 1.22e+03    -  1.68e-02 1.16e-02f  1
  48 -4.1534234e-02 4.19e-01 1.82e+06  -6.0 8.82e+02    -  2.15e-02 7.12e-03h  1
  49 -4.1781737e-02 3.60e-01 1.76e+06  -6.0 7.91e+02    -  7.13e-03 3.17e-02h  2
iter    objective    inf_pr   inf_du lg(mu)  ||d||  lg(rg) alpha_du alpha_pr  ls
  50 -4.2630858e-02 2.34e-01 1.64e+06  -6.0 5.11e+02    -  8.12e-03 6.89e-02h  1
  51 -4.2631564e-02 2.34e-01 1.64e+06  -6.0 3.53e+02    -  4.05e-02 5.59e-05h  1
  52 -4.3007254e-02 2.05e-01 1.59e+06  -6.0 3.65e+02    -  3.07e-02 2.94e-02f  1
  53 -4.3089619e-02 2.06e-01 1.57e+06  -6.0 9.43e+02    -  5.23e-03 9.98e-03h  1
  54 -4.3515180e-02 2.47e-01 1.51e+06  -6.0 8.90e+02    -  5.72e-03 4.14e-02f  1
  55 -4.4139989e-02 2.56e-01 1.46e+06  -6.0 8.28e+02    -  3.78e-02 3.29e-02f  1
  56 -4.4613441e-02 2.63e-01 1.42e+06  -6.0 7.93e+02    -  2.44e-02 2.85e-02h  1
  57 -4.5530055e-02 2.88e-01 1.35e+06  -6.0 7.91e+02    -  8.42e-02 4.82e-02h  1
  58 -4.5823033e-02 2.88e-01 2.27e+06  -6.0 3.35e+02    -  5.39e-02 2.40e-02h  1
  59 -4.5737340e-02 2.83e-01 1.63e+06  -6.0 5.83e+02    -  1.17e-02 1.93e-02h  2
iter    objective    inf_pr   inf_du lg(mu)  ||d||  lg(rg) alpha_du alpha_pr  ls
  60 -4.5702813e-02 2.79e-01 3.69e+06  -6.0 3.01e+02    -  4.73e-02 1.91e-02h  1
  61 -4.5583011e-02 2.74e-01 8.51e+06  -6.0 4.56e+02    -  7.60e-02 1.76e-02h  3
  62 -4.5563210e-02 2.71e-01 7.67e+06  -6.0 3.19e+02    -  2.38e-03 1.39e-02h  4
  63 -4.5297758e-02 2.71e-01 6.22e+06  -6.0 1.30e+03  -3.7 2.25e-07 3.15e-03h  3
  64 -4.5309040e-02 2.77e-01 2.03e+06  -6.0 2.66e+02  -3.2 1.25e-03 3.01e-02h  2
  65 -4.4989765e-02 2.76e-01 1.18e+06  -6.0 1.16e+03  -3.7 2.54e-04 4.40e-03h  2
  66 -4.4851746e-02 2.75e-01 1.16e+06  -6.0 2.23e+02  -3.3 1.97e-02 1.91e-02h  1
  67 -4.4851773e-02 2.75e-01 1.07e+07  -6.0 3.36e+02    -  1.63e-01 2.77e-05h  1
  68 -4.4939915e-02 2.70e-01 2.20e+07  -6.0 2.89e+02    -  2.79e-01 3.76e-02h  3
  69 -4.4945201e-02 2.63e-01 2.59e+07  -6.0 3.27e+02    -  1.54e-01 3.15e-02h  3
iter    objective    inf_pr   inf_du lg(mu)  ||d||  lg(rg) alpha_du alpha_pr  ls
  70 -4.4927719e-02 2.56e-01 2.90e+07  -6.0 3.49e+02    -  1.33e-01 2.56e-02h  3
  71 -4.5295175e-02 2.65e-01 2.99e+07  -6.0 2.23e+02  -3.8 1.55e-01 8.13e-02h  1
  72 -4.5267341e-02 2.63e-01 2.97e+07  -6.0 4.56e+02    -  3.21e-03 4.71e-03h  3
  73 -4.5174008e-02 2.58e-01 2.90e+07  -6.0 3.74e+02    -  5.00e-03 1.20e-02h  5
  74 -4.5071394e-02 2.53e-01 2.83e+07  -6.0 3.58e+02    -  5.45e-03 1.22e-02h  5
  75 -4.4857379e-02 2.40e-01 2.66e+07  -6.0 3.49e+02    -  5.03e-03 2.47e-02h  1
  76 -4.4598101e-02 2.24e-01 3.29e+07  -6.0 3.33e+02    -  1.56e-01 2.92e-02h  2
  77 -4.4531792e-02 2.22e-01 4.16e+07  -6.0 3.50e+02    -  1.74e-01 6.37e-03h  6
  78 -4.4508120e-02 2.22e-01 4.80e+07  -6.0 4.02e+02    -  1.52e-01 1.87e-03h  8
  79 -4.4497857e-02 2.21e-01 5.33e+07  -6.0 4.78e+02    -  1.46e-01 6.84e-04h  9
iter    objective    inf_pr   inf_du lg(mu)  ||d||  lg(rg) alpha_du alpha_pr  ls
  80 -4.4490000e-02 2.21e-01 5.47e+07  -6.0 7.45e+02    -  4.79e-02 4.55e-04h  9
  81 -4.4491010e-02 2.21e-01 5.00e+07  -6.0 1.17e+02  -3.3 1.36e-01 6.59e-05h  2
  82 -4.4491957e-02 2.21e-01 5.63e+07  -6.0 1.42e+02  -3.8 4.10e-01 2.09e-04h  1
  83r-4.4491957e-02 2.21e-01 1.00e+03  -0.7 0.00e+00  -4.3 0.00e+00 3.30e-07R 14
  84r-4.4476995e-02 2.20e-01 1.72e+03  -0.7 3.81e+03    -  1.09e-05 5.69e-06f  1
  85 -4.4477085e-02 2.20e-01 1.44e+04  -6.0 1.42e+02    -  2.07e-04 3.82e-05h  1
  86 -4.4477770e-02 2.20e-01 1.27e+05  -6.0 1.42e+02    -  3.96e-05 2.92e-04h  1
  87 -4.4478850e-02 2.20e-01 1.46e+05  -6.0 1.41e+02    -  6.10e-02 4.81e-04h  1
  88 -4.4504831e-02 2.19e-01 2.86e+05  -6.0 1.67e+02    -  8.17e-04 7.11e-03h  1
  89 -4.4511183e-02 2.19e-01 8.47e+06  -6.0 1.92e+02    -  9.46e-02 1.38e-03h  1
iter    objective    inf_pr   inf_du lg(mu)  ||d||  lg(rg) alpha_du alpha_pr  ls
  90 -4.4817615e-02 2.27e-01 4.72e+06  -6.0 1.88e+02    -  1.01e-02 6.87e-02h  2
  91 -4.5198143e-02 2.50e-01 1.65e+07  -6.0 1.59e+02    -  2.87e-01 1.13e-01h  1
  92 -4.5297871e-02 2.43e-01 3.01e+07  -6.0 1.38e+02    -  2.49e-01 7.48e-02h  1
  93 -4.5295151e-02 2.44e-01 5.53e+07  -6.0 1.32e+02    -  4.53e-01 1.42e-01h  2
  94 -4.5110164e-02 1.57e-01 2.97e+07  -6.0 2.28e+02    -  2.65e-02 1.80e-01h  1
  95 -4.5214515e-02 1.54e-01 4.85e+07  -6.0 1.04e+02    -  3.67e-02 1.94e-02h  1
  96r-4.5214515e-02 1.54e-01 1.00e+03  -0.9 0.00e+00    -  0.00e+00 1.12e-08R  2
  97r-4.5167417e-02 1.53e-01 1.07e+03  -0.9 1.71e+03    -  2.66e-05 2.09e-05f  1
  98 -4.5168128e-02 1.53e-01 5.76e+05  -6.0 1.29e+02    -  5.40e-03 1.06e-04h  1
  99 -4.5170991e-02 1.53e-01 2.32e+06  -6.0 1.29e+02    -  1.07e-04 4.24e-04h  1
iter    objective    inf_pr   inf_du lg(mu)  ||d||  lg(rg) alpha_du alpha_pr  ls
 100 -4.5214796e-02 1.52e-01 2.31e+06  -6.0 1.30e+02    -  2.25e-02 6.51e-03f  1
 101 -4.5222035e-02 1.52e-01 2.31e+06  -6.0 1.28e+02    -  7.21e-03 1.09e-03h  1
 102 -4.5410507e-02 1.48e-01 2.24e+06  -6.0 1.31e+02    -  1.57e-03 2.69e-02h  1
 103 -4.5426879e-02 1.47e-01 2.24e+06  -6.0 1.28e+02    -  1.40e-01 2.39e-03h  1
 104 -4.7138872e-02 1.60e-01 1.67e+06  -6.0 1.28e+02    -  3.10e-02 2.53e-01h  1
 105 -4.8524182e-02 2.40e-01 1.28e+06  -6.0 9.53e+01    -  4.30e-01 2.38e-01h  1
 106 -5.1235950e-02 3.71e-01 6.02e+05  -6.0 7.79e+01    -  4.34e-01 5.28e-01H  1
 107 -5.1091374e-02 3.78e-01 5.41e+04  -6.0 6.02e+01    -  1.91e-01 1.00e+00H  1
 108 -5.0801782e-02 2.35e-01 5.93e+04  -6.0 1.60e+01    -  5.64e-01 3.42e-01h  1
 109 -5.0446683e-02 9.93e-02 2.24e+04  -6.0 2.03e+01    -  3.86e-01 1.00e+00h  1
iter    objective    inf_pr   inf_du lg(mu)  ||d||  lg(rg) alpha_du alpha_pr  ls
 110 -5.0507916e-02 1.35e-04 3.76e+03  -6.0 1.20e+00    -  6.71e-01 1.00e+00h  1
 111 -5.0771243e-02 8.77e-04 1.51e+03  -6.0 6.03e+00    -  8.35e-01 1.00e+00h  1
 112 -5.2186917e-02 2.72e-02 2.31e+01  -6.0 3.48e+01    -  8.78e-01 1.00e+00h  1
 113 -5.3381191e-02 4.23e-02 1.89e+01  -6.0 1.66e+02    -  1.79e-01 1.80e-01h  1
 114 -5.5867436e-02 1.51e-01 1.23e+02  -6.0 1.78e+02    -  4.30e-01 4.23e-01f  1
 115 -6.3565347e-02 8.65e+00 9.50e+03  -6.0 7.76e+02    -  1.11e-02 1.86e-01h  1
 116 -6.3466626e-02 8.47e+00 8.26e+03  -6.0 1.86e+02    -  2.60e-01 2.17e-02h  1
 117 -6.4980371e-02 7.97e+00 4.21e+03  -6.0 3.76e+02    -  4.29e-01 6.92e-02h  1
 118 -7.3024473e-02 1.06e+01 2.31e+03  -6.0 2.95e+02    -  4.54e-01 4.37e-01h  1
 119 -7.4220676e-02 1.00e+01 2.18e+03  -6.0 3.97e+02    -  2.15e-02 7.03e-02h  1
iter    objective    inf_pr   inf_du lg(mu)  ||d||  lg(rg) alpha_du alpha_pr  ls
 120 -7.6978721e-02 9.41e+00 4.54e+04  -6.0 4.86e+02    -  1.54e-02 1.41e-01f  1
 121 -7.7102604e-02 9.32e+00 4.50e+04  -6.0 2.47e+01  -4.8 3.58e-03 9.33e-03h  1
 122 -7.7180777e-02 9.24e+00 4.46e+04  -6.0 7.17e+01  -5.3 9.76e-03 8.88e-03h  1
 123 -7.7608667e-02 8.76e+00 4.23e+04  -6.0 6.15e+01  -5.7 2.63e-02 5.11e-02h  1
 124 -7.8276762e-02 8.17e+00 3.94e+04  -6.0 8.12e+01  -6.2 5.43e-02 6.62e-02h  1
 125 -7.8691428e-02 7.89e+00 3.81e+04  -6.0 1.15e+02  -6.7 2.84e-01 3.39e-02h  1
 126 -8.1290869e-02 6.77e+00 3.19e+04  -6.0 2.27e+02  -7.2 4.83e-02 1.44e-01h  1
 127 -8.2468130e-02 6.17e+00 2.90e+04  -6.0 1.71e+02  -6.7 1.01e-01 8.53e-02h  1
 128 -8.2545460e-02 6.11e+00 2.87e+04  -6.0 5.62e+02    -  1.49e-01 1.07e-02h  1
 129 -8.2988506e-02 5.73e+00 2.70e+04  -6.0 4.83e+02    -  7.89e-02 6.05e-02h  1
iter    objective    inf_pr   inf_du lg(mu)  ||d||  lg(rg) alpha_du alpha_pr  ls
 130 -8.3652587e-02 5.07e+00 2.39e+04  -6.0 1.60e+02  -7.2 3.54e-01 1.16e-01h  1
 131 -8.3678809e-02 5.06e+00 2.38e+04  -6.0 7.40e+02  -7.7 1.03e-01 2.80e-03h  1
 132 -8.4368056e-02 5.10e+00 2.35e+04  -6.0 9.69e+03  -8.2 1.44e-01 1.15e-02h  1
 133 -9.2809490e-02 5.94e+00 9.81e+03  -6.0 9.83e+02    -  1.15e-01 5.82e-01h  1
 134 -9.3735439e-02 5.51e+00 1.72e+06  -6.0 1.08e+03  -8.6 8.94e-06 7.31e-02h  1
 135 -9.4274597e-02 5.37e+00 1.68e+06  -6.0 2.99e+03  -9.1 5.94e-02 2.55e-02h  1
 136 -9.4657926e-02 5.21e+00 1.63e+06  -6.0 3.06e+03  -9.6 1.19e-02 3.04e-02h  1
 137 -9.5896533e-02 5.01e+00 1.56e+06  -6.0 4.76e+03    -  5.34e-03 4.09e-02h  1
 138 -9.6016529e-02 4.94e+00 1.54e+06  -6.0 9.55e+02  -8.3 1.59e-01 1.53e-02h  1
 139 -9.7402887e-02 4.45e+00 1.38e+06  -6.0 1.15e+03    -  3.69e-01 1.02e-01h  1
iter    objective    inf_pr   inf_du lg(mu)  ||d||  lg(rg) alpha_du alpha_pr  ls
 140 -9.8802768e-02 4.01e+00 1.24e+06  -6.0 1.16e+03    -  3.67e-02 1.01e-01h  1
 141 -9.9556484e-02 3.81e+00 1.17e+06  -6.0 2.15e+03    -  1.40e-01 5.14e-02h  1
 142 -1.0343130e-01 3.83e+00 7.80e+05  -6.0 1.08e+03    -  2.87e-01 3.25e-01h  1
 143 -1.0521742e-01 3.89e+00 6.83e+05  -6.0 1.30e+03    -  2.21e-01 1.24e-01h  1
 144 -1.0626094e-01 3.83e+00 6.39e+05  -6.0 1.59e+03    -  4.01e-01 6.48e-02h  1
 145 -1.1016087e-01 4.79e+00 4.96e+05  -6.0 2.10e+03    -  1.48e-01 2.24e-01h  1
 146 -1.1033520e-01 4.57e+00 4.69e+05  -6.0 5.30e+03    -  4.28e-04 5.58e-02h  1
 147 -1.1041316e-01 4.52e+00 4.60e+05  -6.0 2.95e+03    -  4.85e-02 1.97e-02h  1
 148 -1.1118122e-01 8.27e+00 3.87e+05  -6.0 4.09e+03    -  1.68e-05 1.55e-01f  1
 149 -1.1142096e-01 7.46e+00 3.49e+05  -6.0 2.05e+03    -  9.21e-02 9.94e-02h  1
iter    objective    inf_pr   inf_du lg(mu)  ||d||  lg(rg) alpha_du alpha_pr  ls
 150 -1.1411686e-01 2.47e+01 8.55e+04  -6.0 2.03e+03    -  4.79e-04 6.46e-01h  1
 151 -1.1408734e-01 2.27e+01 7.86e+04  -6.0 6.12e+02  -8.7 5.92e-02 8.08e-02h  1
 152 -1.1426702e-01 2.15e+01 7.40e+04  -6.0 2.06e+03    -  1.48e-01 5.91e-02h  1
 153 -1.1435228e-01 2.06e+01 5.24e+06  -6.0 2.94e+03    -  5.73e-04 6.41e-02h  1
 154 -1.1573146e-01 1.91e+01 3.12e+06  -6.0 2.05e+03    -  4.97e-02 4.04e-01h  1
 155 -1.1764136e-01 1.84e+01 1.25e+06  -6.0 3.18e+03    -  1.64e-01 6.00e-01h  1
 156 -1.1779165e-01 1.24e+01 8.38e+05  -6.0 1.94e+02  -8.3 4.55e-02 3.28e-01h  1
 157 -1.1804391e-01 1.11e+01 7.51e+05  -6.0 4.24e+02  -8.8 1.10e-01 1.04e-01h  1
 158 -1.1817569e-01 1.60e+00 1.58e+03  -6.0 1.46e+02  -8.4 6.30e-01 1.00e+00h  1
 159 -1.1824804e-01 1.47e+00 1.42e+03  -6.0 4.00e+01  -6.1 7.07e-02 8.10e-02h  1
iter    objective    inf_pr   inf_du lg(mu)  ||d||  lg(rg) alpha_du alpha_pr  ls
 160 -1.1824414e-01 1.37e+00 3.60e+03  -6.0 5.45e+00  -6.6 1.00e+00 6.86e-02h  1
 161 -1.1838857e-01 1.53e-01 2.15e+02  -6.0 1.98e+01  -7.1 6.65e-01 9.38e-01h  1
 162 -1.1854109e-01 7.07e-02 9.22e+01  -6.0 5.26e+01  -7.6 1.00e+00 5.86e-01h  1
 163 -1.1925417e-01 6.00e-01 2.88e+01  -6.0 1.59e+02  -8.1 7.81e-01 1.00e+00h  1
 164 -1.1936861e-01 5.57e-01 9.60e+01  -6.0 4.54e+02  -8.5 2.93e-01 5.32e-02h  1
 165 -1.2025858e-01 5.60e+00 3.11e+03  -6.0 1.35e+03  -9.0 6.28e-01 3.28e-01h  1
 166 -1.2055266e-01 6.17e+00 6.19e+03  -6.0 4.82e+02  -8.6 7.17e-01 1.87e-01h  1
 167 -1.2122954e-01 3.49e+00 3.61e+03  -6.0 4.38e+02  -9.1 4.47e-01 4.36e-01h  1
 168 -1.2122397e-01 3.40e+00 7.11e+03  -6.0 1.99e+02  -7.7 2.14e-01 2.67e-02h  1
 169 -1.2162112e-01 1.87e+00 9.90e+03  -6.0 1.89e+02  -8.2 1.08e-01 4.51e-01h  1
iter    objective    inf_pr   inf_du lg(mu)  ||d||  lg(rg) alpha_du alpha_pr  ls
 170 -1.2185398e-01 1.60e+00 1.33e+04  -6.0 2.26e+02  -8.7 4.22e-01 1.48e-01h  1
 171 -1.2254975e-01 1.39e+00 7.28e+03  -6.0 5.34e+02  -9.2 1.24e-01 2.48e-01h  1
 172 -1.2367491e-01 2.81e+00 1.90e+07  -6.0 2.83e+03  -9.6 4.27e-04 1.40e-01h  1
 173 -1.2462676e-01 2.98e+00 4.77e+06  -6.0 5.36e+02  -9.2 6.87e-02 7.49e-01h  1
 174 -1.2528516e-01 4.04e+00 4.00e+06  -6.0 2.33e+03  -9.7 1.26e-01 1.61e-01h  1
 175 -1.2603259e-01 3.83e+00 1.94e+06  -6.0 5.88e+02  -9.3 2.59e-01 5.15e-01h  1
 176 -1.2670993e-01 4.08e+00 1.40e+06  -6.0 1.12e+03  -9.7 3.44e-02 2.78e-01h  1
 177 -1.2781476e-01 9.38e+00 1.28e+06  -6.0 9.89e+03 -10.2 7.72e-03 8.74e-02h  1
 178 -1.2869905e-01 4.63e+00 4.64e+05  -6.0 3.65e+02  -8.9 3.90e-01 6.37e-01h  1
 179 -1.3006369e-01 8.42e+00 3.75e+05  -6.0 2.41e+03  -9.4 2.97e-02 1.92e-01h  1
iter    objective    inf_pr   inf_du lg(mu)  ||d||  lg(rg) alpha_du alpha_pr  ls
 180 -1.3132805e-01 1.57e+01 3.60e+05  -6.0 1.45e+04  -9.8 9.68e-03 4.05e-02h  1
 181 -1.3139076e-01 1.56e+01 3.56e+05  -6.0 1.02e+03  -8.5 6.44e-02 1.11e-02h  1
 182 -1.3192404e-01 1.27e+01 2.75e+05  -6.0 7.16e+02  -9.0 4.42e-01 2.27e-01h  1
 183 -1.3304306e-01 1.47e+01 2.30e+05  -6.0 2.57e+03  -9.5 5.57e-01 1.63e-01h  1
 184 -1.3306880e-01 1.46e+01 2.29e+05  -6.0 1.60e+03  -9.9 1.32e-01 5.92e-03h  1
 185 -1.3340381e-01 1.18e+01 1.85e+05  -6.0 4.06e+03 -10.4 2.59e-01 1.91e-01h  1
 186 -1.3332580e-01 4.58e+01 1.82e+05  -6.0 9.00e+04 -10.9 6.07e-03 1.80e-02h  1
 187 -1.3341594e-01 4.24e+01 1.68e+05  -6.0 6.69e+03    -  6.18e-02 7.50e-02h  1
 188 -1.3354298e-01 3.74e+01 1.46e+05  -6.0 2.72e+03 -10.5 2.47e-01 1.35e-01h  1
 189 -1.3363520e-01 3.40e+01 1.30e+05  -6.0 7.53e+03 -10.9 2.86e-01 1.05e-01h  1
iter    objective    inf_pr   inf_du lg(mu)  ||d||  lg(rg) alpha_du alpha_pr  ls
 190 -1.3394233e-01 7.10e+00 2.75e+04  -6.0 1.82e+02  -8.7 1.15e-01 7.94e-01h  1
 191 -1.3426417e-01 1.31e+00 3.07e+03  -6.0 2.03e+02  -9.2 6.02e-01 8.94e-01h  1
 192 -1.3451188e-01 6.89e-01 5.91e+02  -6.0 1.75e+02  -7.9 4.74e-01 8.08e-01h  1
 193 -1.3450815e-01 5.02e+00 5.28e+02  -6.0 5.14e+03    -  1.43e-01 1.08e-01h  1
 194 -1.3437906e-01 6.10e+01 4.22e+02  -6.0 1.44e+04    -  1.01e-01 2.00e-01H  1
 195 -1.3460555e-01 5.14e+01 6.10e+02  -6.0 2.55e+03    -  7.64e-01 4.88e-01h  1
 196 -1.3480306e-01 8.67e-01 1.66e+01  -6.0 1.80e+02  -8.3 1.00e+00 1.00e+00h  1
 197 -1.3489939e-01 6.93e-01 5.58e+02  -6.0 2.00e+02  -8.8 4.20e-01 3.51e-01h  1
 198 -1.3515198e-01 1.08e+00 1.62e+03  -6.0 2.19e+02  -9.3 1.00e+00 8.94e-01h  1
 199 -1.3517851e-01 4.47e-01 2.19e+06  -6.0 9.70e+01  -9.8 1.02e-02 1.00e+00h  1
iter    objective    inf_pr   inf_du lg(mu)  ||d||  lg(rg) alpha_du alpha_pr  ls
 200 -1.3514306e-01 5.38e-01 4.30e+02  -6.0 2.13e+02 -10.2 1.00e+00 1.00e+00h  1
 201 -1.3529481e-01 1.17e+00 2.76e+02  -6.0 7.20e+02 -10.7 3.71e-01 3.51e-01h  1
 202 -1.3530535e-01 1.35e+00 2.73e+02  -6.0 2.26e+04    -  1.18e-01 1.19e-02h  2
 203 -1.3530858e-01 6.58e+00 8.64e+01  -6.0 1.02e+03 -11.2 4.55e-01 6.84e-01h  1
 204 -1.3537250e-01 5.36e+00 6.88e+01  -6.0 4.55e+02 -10.8 2.79e-02 1.86e-01h  1
 205 -1.3533357e-01 1.93e-02 2.33e+01  -6.0 8.59e+00  -6.7 2.77e-01 1.00e+00h  1
 206 -1.3532552e-01 3.39e-03 1.86e-02  -6.0 3.89e+00  -7.2 1.00e+00 1.00e+00h  1
 207 -1.3531391e-01 5.25e-02 1.09e-01  -6.0 2.03e+01  -7.7 1.00e+00 1.00e+00h  1
 208 -1.3530533e-01 1.05e-01 5.26e-01  -6.0 5.40e+01  -8.2 1.00e+00 1.00e+00h  1
 209 -1.3529266e-01 3.99e-01 2.11e+00  -6.0 1.16e+02  -8.6 1.00e+00 1.00e+00h  1
iter    objective    inf_pr   inf_du lg(mu)  ||d||  lg(rg) alpha_du alpha_pr  ls
 210 -1.3525930e-01 9.52e-01 4.83e+00  -6.0 2.42e+02  -9.1 8.17e-01 6.94e-01h  1
 211 -1.3524875e-01 2.56e-01 1.48e-01  -6.0 3.68e+01  -9.6 1.00e+00 1.00e+00h  1
 212 -1.3522508e-01 1.15e+00 5.79e+00  -6.0 4.74e+02  -9.2 3.66e-01 4.19e-01h  1
 213 -1.3524295e-01 2.26e+01 9.30e+00  -6.0 1.35e+03    -  1.00e+00 1.00e+00h  1
 214 -1.3524457e-01 1.47e+01 3.96e+01  -6.0 2.51e+02  -9.7 4.14e-01 3.52e-01h  1
 215 -1.3524864e-01 1.41e+00 1.10e+01  -6.0 2.26e+02 -10.1 1.00e+00 1.00e+00h  1
 216 -1.3525701e-01 1.10e+00 1.80e+02  -6.0 2.39e+02    -  4.35e-01 3.77e-01h  1
 217 -1.3527722e-01 1.50e+00 4.62e+01  -6.0 2.36e+02    -  1.00e+00 1.00e+00h  1
 218 -1.3527781e-01 1.34e+00 3.13e+01  -6.0 3.52e+02 -10.6 2.67e-01 2.67e-01h  1
 219 -1.3528690e-01 1.43e+00 1.18e+06  -6.0 3.20e+03 -11.1 1.00e-02 1.00e+00H  1
iter    objective    inf_pr   inf_du lg(mu)  ||d||  lg(rg) alpha_du alpha_pr  ls
 220 -1.3523992e-01 9.01e-01 1.59e+01  -6.0 9.51e+01    -  1.00e+00 1.00e+00h  1
 221 -1.3519292e-01 7.58e-01 6.48e+00  -6.0 1.70e+02    -  8.32e-01 9.28e-01h  1
 222 -1.3523473e-01 3.67e-01 2.56e+00  -6.0 1.09e+02    -  1.00e+00 1.00e+00h  1
 223 -1.3517041e-01 4.64e-01 2.56e+00  -6.0 1.23e+02    -  1.00e+00 1.00e+00h  1
 224 -1.3511561e-01 1.31e-01 6.35e-01  -6.0 6.60e+01    -  8.90e-01 1.00e+00h  1
 225 -1.3515191e-01 8.45e-02 3.88e-01  -6.0 5.27e+01    -  1.00e+00 1.00e+00h  1
 226 -1.3514775e-01 4.30e-04 1.98e-03  -6.0 3.25e+00    -  1.00e+00 1.00e+00h  1
 227 -1.3514780e-01 9.43e-08 4.22e-07  -6.0 5.54e-02    -  1.00e+00 1.00e+00h  1
 228 -1.3560478e-01 1.50e+00 3.31e+01  -7.5 3.80e+03    -  2.74e-01 1.59e-01f  1
 229 -1.3603039e-01 1.68e+00 5.12e+01  -7.5 7.09e+02  -9.8 4.39e-01 3.14e-01h  1
iter    objective    inf_pr   inf_du lg(mu)  ||d||  lg(rg) alpha_du alpha_pr  ls
 230 -1.3620221e-01 1.32e+00 1.97e+01  -7.5 3.23e+02  -9.3 4.04e-02 2.65e-01h  1
 231 -1.3626588e-01 1.22e+00 2.71e+01  -7.5 5.16e+02  -9.8 2.26e-01 1.13e-01h  1
 232 -1.3634533e-01 1.29e+00 2.68e+01  -7.5 1.12e+03 -10.3 1.32e-01 1.22e-01h  1
 233 -1.3670492e-01 1.71e+01 4.74e+01  -7.5 2.80e+03    -  2.54e-01 3.94e-01h  1
 234 -1.3678650e-01 1.69e+01 4.72e+01  -7.5 3.08e+03    -  5.71e-02 1.18e-01h  1
 235 -1.3687520e-01 1.77e+01 4.77e+01  -7.5 3.60e+03    -  1.57e-01 1.24e-01h  1
 236 -1.3700410e-01 2.02e+01 6.74e+01  -7.5 2.47e+03    -  2.24e-01 2.95e-01h  1
 237 -1.3702666e-01 1.89e+01 4.28e+01  -7.5 2.02e+03    -  2.87e-02 8.95e-02h  1
 238 -1.3704798e-01 1.83e+01 4.16e+01  -7.5 3.15e+03    -  8.99e-04 6.34e-02h  1
 239 -1.3704963e-01 1.82e+01 4.10e+01  -7.5 3.63e+03  -9.9 2.83e-02 8.40e-03h  1
iter    objective    inf_pr   inf_du lg(mu)  ||d||  lg(rg) alpha_du alpha_pr  ls
 240 -1.3709170e-01 1.77e+01 1.09e+02  -7.5 2.52e+03    -  1.40e-02 1.58e-01h  1
 241 -1.3709420e-01 1.76e+01 7.81e+01  -7.5 2.94e+03    -  6.12e-02 8.92e-03h  1
 242 -1.3710321e-01 1.71e+01 5.65e+01  -7.5 2.48e+03    -  8.54e-02 3.86e-02h  1
 243 -1.3712980e-01 1.68e+01 8.44e+01  -7.5 2.85e+03    -  1.64e-04 1.15e-01h  1
 244 -1.3717060e-01 1.80e+01 9.83e+01  -7.5 2.68e+03    -  8.73e-02 2.01e-01h  1
 245 -1.3725515e-01 4.73e+01 1.55e+02  -7.5 3.66e+03    -  4.72e-02 4.12e-01h  1
 246 -1.3726876e-01 4.18e+01 1.35e+02  -7.5 2.57e+03    -  1.11e-03 1.18e-01h  1
 247 -1.3730155e-01 3.15e+01 9.90e+01  -7.5 1.72e+03    -  9.53e-02 3.23e-01h  1
 248 -1.3731406e-01 2.86e+01 7.54e+02  -7.5 2.04e+03    -  9.65e-03 1.40e-01h  1
 249 -1.3732608e-01 2.11e+01 5.16e+02  -7.5 6.83e+02 -10.3 1.20e-01 2.87e-01h  1
iter    objective    inf_pr   inf_du lg(mu)  ||d||  lg(rg) alpha_du alpha_pr  ls
 250 -1.3734307e-01 2.64e+01 5.10e+02  -7.5 1.09e+05    -  5.98e-04 5.05e-03h  1
 251 -1.3734300e-01 1.74e+01 3.13e+02  -7.5 5.44e+02 -10.8 2.41e-01 3.50e-01h  1
 252 -1.3737524e-01 2.40e+01 1.37e+02  -7.5 1.66e+03 -10.4 6.11e-02 5.65e-01h  1
 253 -1.3737492e-01 2.18e+01 1.24e+02  -7.5 2.22e+03    -  1.30e-01 9.60e-02h  1
 254 -1.3739246e-01 1.14e+01 3.96e+01  -7.5 7.28e+02 -10.9 9.79e-02 7.90e-01h  1
 255 -1.3739264e-01 1.04e+01 3.70e+01  -7.5 4.89e+03    -  2.95e-01 1.04e-01h  1
 256 -1.3739433e-01 8.48e+00 3.19e+01  -7.5 1.17e+03    -  9.54e-01 2.20e-01h  1
 257 -1.3740004e-01 1.06e+01 2.31e+00  -7.5 9.12e+02    -  1.00e+00 9.33e-01h  1
 258 -1.3741150e-01 6.44e+01 7.82e-01  -7.5 2.23e+03    -  1.00e+00 9.65e-01h  1
 259 -1.3741155e-01 6.38e+01 2.05e+02  -7.5 2.67e+03    -  2.10e-02 9.39e-03h  1
iter    objective    inf_pr   inf_du lg(mu)  ||d||  lg(rg) alpha_du alpha_pr  ls
 260 -1.3741529e-01 5.91e+01 1.74e+02  -7.5 3.81e+03    -  2.94e-01 2.55e-01h  1
 261 -1.3741545e-01 5.83e+01 1.10e+02  -7.5 6.61e+02    -  1.53e-02 1.36e-02h  1
 262 -1.3741820e-01 7.67e+01 8.80e+01  -7.5 6.44e+03    -  3.08e-01 2.58e-01f  1
 263 -1.3741865e-01 7.66e+01 8.76e+01  -7.5 2.93e+04    -  4.27e-03 4.31e-03h  2
 264 -1.3741931e-01 7.39e+01 7.99e+01  -7.5 3.35e+03    -  7.50e-02 3.70e-02h  1
 265 -1.3741948e-01 6.93e+01 7.82e+01  -7.5 2.01e+03    -  4.09e-02 6.52e-02h  1
 266 -1.3741771e-01 2.37e+01 1.07e+02  -7.5 1.18e+03    -  1.89e-02 8.39e-01h  1
 267 -1.3741735e-01 1.56e-04 2.67e+00  -7.5 2.44e+01    -  8.84e-01 1.00e+00h  1
 268 -1.3741836e-01 1.28e+00 2.14e+00  -7.5 1.90e+03    -  1.40e-01 1.72e-01h  1
 269 -1.3742033e-01 5.84e+00 2.68e+00  -7.5 7.74e+02    -  1.00e+00 3.61e-01H  1
iter    objective    inf_pr   inf_du lg(mu)  ||d||  lg(rg) alpha_du alpha_pr  ls
 270 -1.3742013e-01 2.06e-02 2.83e-01  -7.5 3.64e+01    -  4.91e-01 1.00e+00h  1
 271 -1.3742025e-01 6.86e-03 1.07e-02  -7.5 5.07e+01    -  1.00e+00 8.33e-01H  1
 272 -1.3742022e-01 1.46e-03 3.80e-06  -7.5 1.13e+01    -  1.00e+00 1.00e+00f  1
 273 -1.3742022e-01 2.97e-10 1.14e-11  -7.5 2.00e-03    -  1.00e+00 1.00e+00h  1
 274 -1.3742318e-01 3.83e-02 2.68e+00  -9.0 1.14e+02    -  5.50e-01 3.77e-01h  1
 275 -1.3742461e-01 4.21e-01 6.37e+00  -9.0 6.52e+02 -11.3 8.38e-01 2.22e-01h  1
 276 -1.3742785e-01 9.94e+00 5.83e+01  -9.0 2.60e+03 -11.8 5.23e-02 2.66e-01h  1
 277 -1.3742886e-01 8.23e+00 4.82e+01  -9.0 7.96e+02 -11.4 1.00e+00 2.25e-01h  1
 278 -1.3743510e-01 3.31e+01 8.33e+01  -9.0 6.22e+03 -11.9 1.18e-01 2.01e-01h  1
 279 -1.3744302e-01 4.87e+01 3.83e+01  -9.0 2.29e+03 -11.4 4.67e-01 6.30e-01h  1
iter    objective    inf_pr   inf_du lg(mu)  ||d||  lg(rg) alpha_du alpha_pr  ls
 280 -1.3744886e-01 4.35e+00 2.01e+02  -9.0 4.28e+02    -  3.98e-02 1.00e+00h  1
 281 -1.3745813e-01 1.93e+01 1.39e+02  -9.0 3.06e+03 -11.0 5.15e-01 2.98e-01h  1
 282 -1.3745314e-01 5.43e+00 9.21e+00  -9.0 5.30e+02    -  5.61e-01 1.00e+00h  1
 283 -1.3745783e-01 6.21e+00 5.47e+00  -9.0 9.42e+02    -  1.00e+00 4.08e-01h  1
 284 -1.3745759e-01 1.01e-01 9.20e-02  -9.0 7.63e+01    -  1.00e+00 1.00e+00h  1
 285 -1.3745759e-01 3.11e-05 4.30e-04  -9.0 1.13e+00    -  1.00e+00 1.00e+00h  1
 286 -1.3745759e-01 3.20e-07 2.09e-08  -9.0 1.25e-01    -  1.00e+00 1.00e+00h  1
 287 -1.3745759e-01 2.82e-10 2.01e-11  -9.0 2.32e-03    -  1.00e+00 1.00e+00h  1

Number of Iterations....: 287

                                   (scaled)                 (unscaled)
Objective...............:  -1.3745758708039940e-01   -1.3745758708039940e-01
Dual infeasibility......:   2.0076468265628478e-11    2.0076468265628478e-11
Constraint violation....:   2.8197742665131420e-10    2.8197742665131420e-10
Complementarity.........:   9.0909152619088095e-10    9.0909152619088095e-10
Overall NLP error.......:   9.0909152619088095e-10    9.0909152619088095e-10


Number of objective function evaluations             = 501
Number of objective gradient evaluations             = 288
Number of equality constraint evaluations            = 501
Number of inequality constraint evaluations          = 502
Number of equality constraint Jacobian evaluations   = 294
Number of inequality constraint Jacobian evaluations = 294
Number of Lagrangian Hessian evaluations             = 287
Total CPU secs in IPOPT (w/o function evaluations)   =    150.326
Total CPU secs in NLP function evaluations           =      6.664

EXIT: Optimal Solution Found.
